analyze/results_flowersnark/final_miplib_symretope_if_extended_generating_set_cpx_v802__settings_final_nosym_norestarts__0__mspp16.mps.gz.sol
solution status: optimal solution found
objective value:                                  363
C560                                                1 	(obj:11)
C57290                                              1 	(obj:11)
C250277                                             1 	(obj:11)
C650369                                             1 	(obj:11)
C1340702                                            1 	(obj:11)
C2416700                                            1 	(obj:11)
C3986075                                            1 	(obj:11)
C6168827                                            1 	(obj:11)
C9097244                                            1 	(obj:11)
C12915902                                           1 	(obj:11)
C17781665                                           1 	(obj:11)
C23863685                                           1 	(obj:11)
C31343402                                           1 	(obj:11)
C40414544                                           1 	(obj:11)
C51283127                                           1 	(obj:11)
C65076935                                           1 	(obj:11)
C65625695                                           1 	(obj:11)
C67843775                                           1 	(obj:11)
C68404055                                           1 	(obj:11)
C69531527                                           1 	(obj:11)
C71240015                                           1 	(obj:11)
C78081255                                           1 	(obj:11)
C78682239                                           1 	(obj:11)
C79285527                                           1 	(obj:11)
C81109215                                           1 	(obj:11)
C82953639                                           1 	(obj:11)
C84194775                                           1 	(obj:11)
C85654415                                           1 	(obj:11)
C89465375                                           1 	(obj:11)
C96001295                                           1 	(obj:11)
C98680175                                           1 	(obj:11)
C98905079                                           1 	(obj:11)
C99355655                                           1 	(obj:11)
