analyze/results_flowersnark/final_miplib_symretope_if_extended_generating_set_cpx_v802__settings_final_nosym_norestarts__0__mspp16.mps.gz.out
FILENAME:   /home/mcs001/s132664/testsets/IP/miplib2010/mspp16.mps.gz
SETTINGS:   settings_final_nosym_norestarts
TIMELIMIT:  7200
OUTPUTNAME: final_miplib_symretope_if_extended_generating_set_cpx_v802__settings_final_nosym_norestarts__0__
BINNAME:    bin/sbcs.linux.x86_64.gnu.opt.cpx
BASENAME:   mspp16.mps.gz
SEED:       0
@01 /home/mcs001/s132664/testsets/IP/miplib2010/mspp16.mps.gz ===========
@02 mspp16.mps.gz
@03 1686649151
SCIP version 8.0.2 [precision: 8 byte] [memory: block] [mode: optimized] [LP solver: CPLEX 20.1.0.0] [GitHash: 5f0473c]
Copyright (C) 2002-2022 Konrad-Zuse-Zentrum fuer Informationstechnik Berlin (ZIB)

Symretope propagation methods - (c) Jasper van Doornmalen, Christopher Hojny.
[GitHash: 2fd0484]

reading parameter file <../settings/settings_final_nosym_norestarts.set> ...

Changed settings:
limits/time = 7200
limits/restarts = 0
misc/usesymmetry = 0
constraints/orbisack/sepafreq = -1
constraints/symresack/sepafreq = -1
propagating/symmetry/detectsubgroups = FALSE
propagating/symmetry/usesymretopes = FALSE
propagating/symmetry/relabelsymretopes = 0
propagating/symmetry/ofsymcomptiming = 0
constraints/symretope/sepafreq = -1
constraints/symretope/peek = FALSE


solving problem ...

original problem has 29280 variables (29280 bin, 0 int, 0 impl, 0 cont) and 561657 constraints
presolving:
(round 1, fast)       25215 del vars, 36781 del conss, 0 add conss, 25215 chg bounds, 991 chg sides, 0 chg coeffs, 0 upgd conss, 0 impls, 1726 clqs
(round 2, exhaustive) 25215 del vars, 36843 del conss, 0 add conss, 25215 chg bounds, 991 chg sides, 0 chg coeffs, 524798 upgd conss, 0 impls, 1726 clqs
(round 3, medium)     25215 del vars, 37053 del conss, 210 add conss, 25215 chg bounds, 1201 chg sides, 3360 chg coeffs, 524798 upgd conss, 0 impls, 1935 clqs
   (48.4s) sparsify aborted: 480/27555495 (0.0%) nonzeros canceled - in total 480 canceled nonzeros, 480 changed coefficients, 0 added nonzeros
   (72.5s) probing: 93/4065 (2.3%) - 0 fixings, 0 aggregations, 225 implications, 0 bound changes
   (72.5s) probing aborted: 50/50 successive totally useless probings
presolving (4 rounds: 4 fast, 3 medium, 2 exhaustive):
 25215 deleted vars, 37053 deleted constraints, 210 added constraints, 25215 tightened bounds, 0 added holes, 1201 changed sides, 4080 changed coefficients
 0 implications, 2160 cliques
presolved problem has 4065 variables (4065 bin, 0 int, 0 impl, 0 cont) and 524814 constraints
 522862 constraints of type <knapsack>
   1936 constraints of type <setppc>
     16 constraints of type <linear>
transformed objective value is always integral (scale: 11)
Presolving Time: 73.83

 time | node  | left  |LP iter|LP it/n|mem/heur|mdpt |vars |cons |rows |cuts |sepa|confs|strbr|  dualbound   | primalbound  |  gap   | compl. 
  200s|     1 |     0 |     2 |     - |  8496M |   0 |4065 | 524k| 524k|   0 |  0 |  67 |   0 | 3.410000e+02 |      --      |    Inf | unknown
r 200s|     1 |     0 |     2 |     - |shifting|   0 |4065 | 524k| 524k|   0 |  0 |  67 |   0 | 3.410000e+02 | 3.740000e+02 |   9.68%| unknown
  204s|     1 |     0 |    13 |     - |  8555M |   0 |4065 | 524k| 524k|   4 |  1 |  67 |   0 | 3.410000e+02 | 3.740000e+02 |   9.68%| unknown
r 206s|     1 |     0 |    13 |     - |shifting|   0 |4065 | 524k| 524k|   4 |  1 |  67 |   0 | 3.410000e+02 | 3.630000e+02 |   6.45%| unknown
  209s|     1 |     0 |    43 |     - |  8612M |   0 |4065 | 524k| 524k|  10 |  2 |  67 |   0 | 3.410000e+02 | 3.630000e+02 |   6.45%| unknown
  215s|     1 |     0 |    68 |     - |  8668M |   0 |4065 | 524k| 524k|  15 |  3 |  67 |   0 | 3.410000e+02 | 3.630000e+02 |   6.45%| unknown
  219s|     1 |     0 |    89 |     - |  8725M |   0 |4065 | 524k| 524k|  21 |  4 |  67 |   0 | 3.410000e+02 | 3.630000e+02 |   6.45%| unknown
  224s|     1 |     0 |   113 |     - |  8782M |   0 |4065 | 524k| 524k|  28 |  5 |  67 |   0 | 3.410000e+02 | 3.630000e+02 |   6.45%| unknown
  228s|     1 |     0 |   134 |     - |  8838M |   0 |4065 | 524k| 524k|  34 |  6 |  67 |   0 | 3.410000e+02 | 3.630000e+02 |   6.45%| unknown
  232s|     1 |     0 |   155 |     - |  8895M |   0 |4065 | 524k| 524k|  40 |  7 |  67 |   0 | 3.410000e+02 | 3.630000e+02 |   6.45%| unknown
  237s|     1 |     0 |   191 |     - |  8952M |   0 |4065 | 524k| 524k|  48 |  8 |  67 |   0 | 3.410000e+02 | 3.630000e+02 |   6.45%| unknown
  242s|     1 |     0 |   229 |     - |  9009M |   0 |4065 | 524k| 524k|  56 |  9 |  67 |   0 | 3.410000e+02 | 3.630000e+02 |   6.45%| unknown
  248s|     1 |     0 |   259 |     - |  9065M |   0 |4065 | 524k| 524k|  64 | 10 |  67 |   0 | 3.410000e+02 | 3.630000e+02 |   6.45%| unknown
  258s|     1 |     0 |   295 |     - |  9122M |   0 |4065 | 524k| 524k|  71 | 11 |  67 |   0 | 3.410000e+02 | 3.630000e+02 |   6.45%| unknown
  353s|     1 |     2 |   326 |     - |  9142M |   0 |4065 | 524k| 524k|  71 | 11 |  68 |  16 | 3.410000e+02 | 3.630000e+02 |   6.45%| unknown
 time | node  | left  |LP iter|LP it/n|mem/heur|mdpt |vars |cons |rows |cuts |sepa|confs|strbr|  dualbound   | primalbound  |  gap   | compl. 
r2476s|    19 |     2 |  3302 | 167.1 |shifting|  10 |4065 | 526k| 524k| 102 | 17 |1441 |1392 | 3.410000e+02 | 3.630000e+02 |   6.45%|  18.26%

SCIP Status        : problem is solved [optimal solution found]
Solving Time (sec) : 4735.39
Solving Nodes      : 39
Primal Bound       : +3.63000000000000e+02 (54 solutions)
Dual Bound         : +3.63000000000000e+02
Gap                : 0.00 %
SCIP Status        : problem is solved [optimal solution found]
Total Time         :    4767.34
  solving          :    4735.39
  presolving       :      73.83 (included in solving)
  reading          :      31.95
  copying          :       4.20 (2 #copies) (minimal 2.03, maximal 2.16, average 2.10)
Original Problem   :
  Problem name     : mspp16
  Variables        : 29280 (29280 binary, 0 integer, 0 implicit integer, 0 continuous)
  Constraints      : 561657 initial, 561657 maximal
  Objective        : minimize, 4065 non-zeros (abs.min = 11, abs.max = 11)
Presolved Problem  :
  Problem name     : t_mspp16
  Variables        : 4065 (4065 binary, 0 integer, 0 implicit integer, 0 continuous)
  Constraints      : 524814 initial, 527488 maximal
  Objective        : minimize, 3585 non-zeros (abs.min = 1, abs.max = 1)
  Nonzeros         : 27555015 constraint, 14484 clique table
Presolvers         :   ExecTime  SetupTime  Calls  FixedVars   AggrVars   ChgTypes  ChgBounds   AddHoles    DelCons    AddCons   ChgSides   ChgCoefs
  boundshift       :       0.00       0.00      0          0          0          0          0          0          0          0          0          0
  convertinttobin  :       0.00       0.00      0          0          0          0          0          0          0          0          0          0
  domcol           :       2.51       0.00      1          0          0          0          0          0          0          0          0          0
  dualagg          :       0.00       0.00      0          0          0          0          0          0          0          0          0          0
  dualcomp         :       0.00       0.00      0          0          0          0          0          0          0          0          0          0
  dualinfer        :       0.00       0.00      0          0          0          0          0          0          0          0          0          0
  dualsparsify     :       5.20       0.00      1          0          0          0          0          0          0          0          0          0
  gateextraction   :       0.00       0.00      0          0          0          0          0          0          0          0          0          0
  implics          :       0.00       0.00      3          0          0          0          0          0          0          0          0          0
  inttobinary      :       0.00       0.00      0          0          0          0          0          0          0          0          0          0
  qpkktref         :       0.00       0.00      0          0          0          0          0          0          0          0          0          0
  redvub           :       0.00       0.00      0          0          0          0          0          0          0          0          0          0
  sparsify         :       4.15       0.00      1          0          0          0          0          0          0          0          0        480
  stuffing         :       0.00       0.00      0          0          0          0          0          0          0          0          0          0
  trivial          :       0.00       0.00      4          0          0          0          0          0          0          0          0          0
  tworowbnd        :       0.00       0.00      0          0          0          0          0          0          0          0          0          0
  dualfix          :       0.00       0.00      4          0          0          0          0          0          0          0          0          0
  genvbounds       :       0.00       0.00      0          0          0          0          0          0          0          0          0          0
  probing          :      24.11       0.00      1          0          0          0          0          0          0          0          0          0
  pseudoobj        :       0.00       0.00      0          0          0          0          0          0          0          0          0          0
  symmetry         :       0.00       0.00      0          0          0          0          0          0          0          0          0          0
  vbounds          :       0.00       0.00      2          0          0          0          0          0          0          0          0          0
  knapsack         :      21.10       0.24      5          0          0          0          0          0        210        210        210       3600
  setppc           :       0.01       0.00      5          0          0          0          0          0          0          0          0          0
  linear           :      11.99       4.45      6      25215          0          0      25215          0      36843          0        991          0
  logicor          :       0.00       0.00      0          0          0          0          0          0          0          0          0          0
  benders          :       0.00       0.00      0          0          0          0          0          0          0          0          0          0
  components       :       2.07       0.00      1          0          0          0          0          0          0          0          0          0
  root node        :          -          -      -       3969          -          -       3969          -          -          -          -          -
Constraints        :     Number  MaxNumber  #Separate #Propagate    #EnfoLP    #EnfoRelax  #EnfoPS    #Check   #ResProp    Cutoffs    DomReds       Cuts    Applied      Conss   Children
  benderslp        :          0          0          0          0        533          0          0         74          0          0          0          0          0          0          0
  integral         :          0          0          0          0        533          0          0         74          0          0       2373          0          0       2644         38
  knapsack         :     522862     522862         11      15203          0          0          0         69       8825         95      10598        142          6          0          0
  setppc           :       1936+      3565         11      15108          0          0          0         56       2734         42       3525          0          0          0          0
  linear           :         16         16         11      14293          0          0          0         54        330         57         47          0          0          0          0
  logicor          :          0+      1045         11       2992          0          0          0          0        715         44         84          8          0          0          0
  benders          :          0          0          0          0          0          0          0         55          0          0          0          0          0          0          0
  countsols        :          0          0          0          0          0          0          0         55          0          0          0          0          0          0          0
  components       :          0          0          0          0          0          0          0          0          0          0          0          0          0          0          0
Constraint Timings :  TotalTime  SetupTime   Separate  Propagate     EnfoLP     EnfoPS     EnfoRelax   Check    ResProp    SB-Prop
  benderslp        :       0.00       0.00       0.00       0.00       0.00       0.00       0.00       0.00       0.00       0.00
  integral         :    3847.65       0.00       0.00       0.00    3847.64       0.00       0.00       0.01       0.00       0.00
  knapsack         :     240.87       0.24      10.19      90.55       0.00       0.00       0.00      24.72       0.01     115.17
  setppc           :      57.34       0.00       0.00      18.31       0.00       0.00       0.00       0.04       0.00      38.99
  linear           :      14.28       4.45       0.00       0.17       0.00       0.00       0.00       0.02       0.00       9.64
  logicor          :       4.98       0.00       0.00       0.27       0.00       0.00       0.00       0.00       0.00       4.71
  benders          :       0.00       0.00       0.00       0.00       0.00       0.00       0.00       0.00       0.00       0.00
  countsols        :       0.00       0.00       0.00       0.00       0.00       0.00       0.00       0.00       0.00       0.00
  components       :       0.00       0.00       0.00       0.00       0.00       0.00       0.00       0.00       0.00       0.00
Propagators        : #Propagate   #ResProp    Cutoffs    DomReds
  dualfix          :          1          0          0          0
  genvbounds       :          0          0          0          0
  nlobbt           :          0          0          0          0
  obbt             :          0          0          0          0
  probing          :          0          0          0          0
  pseudoobj        :       1344          2          0        105
  redcost          :       1148          0          0      48478
  rootredcost      :          1          0          0          0
  symmetry         :          0          0          0          0
  vbounds          :       2890          0          0          0
Propagator Timings :  TotalTime  SetupTime   Presolve  Propagate    ResProp    SB-Prop
  dualfix          :       0.00       0.00       0.00       0.00       0.00       0.00
  genvbounds       :       0.01       0.00       0.00       0.00       0.00       0.00
  nlobbt           :       0.00       0.00       0.00       0.00       0.00       0.00
  obbt             :       0.00       0.00       0.00       0.00       0.00       0.00
  probing          :      24.11       0.00      24.11       0.00       0.00       0.00
  pseudoobj        :       0.30       0.00       0.00       0.30       0.00       0.00
  redcost          :     129.31       0.00       0.00     129.31       0.00       0.00
  rootredcost      :       0.01       0.00       0.00       0.00       0.00       0.00
  symmetry         :       0.00       0.00       0.00       0.00       0.00       0.00
  vbounds          :       0.02       0.00       0.00       0.01       0.00       0.01
Conflict Analysis  :       Time      Calls    Success    DomReds  Conflicts   Literals    Reconvs ReconvLits   Dualrays   Nonzeros   LP Iters   (pool size: [10000,10000])
  propagation      :       0.01        182        160          -        349       67.4         14       12.4          -          -          -
  infeasible LP    :       0.01          3          3          -          9      211.9          0        0.0          0        0.0          0
  bound exceed. LP :    1866.33       1961       1957          -       2729       19.0          8       20.0         12       72.6       7719
  strong branching :       0.00          0          0          -          0        0.0          0        0.0          -          -          0
  pseudo solution  :       0.00          0          0          -          0        0.0          0        0.0          -          -          -
  applied globally :       0.12          -          -          0       2789       13.3          -          -         12          -          -
  applied locally  :          -          -          -          0          0        0.0          -          -          0          -          -
Separators         :   ExecTime  SetupTime      Calls  RootCalls    Cutoffs    DomReds  FoundCuts ViaPoolAdd  DirectAdd    Applied ViaPoolApp  DirectApp      Conss
  cut pool         :       0.04          -         68         21          -          -        925       1074          -          -          -          -          -    (maximal pool size:        925)
  aggregation      :       6.86       0.00         50         11          0          0        138        236          6         97         93          4          0
  > cmir           :          -          -          -          -          -          -          -        100          0         43         43          0          -
  > flowcover      :          -          -          -          -          -          -          -         75          0          2          2          0          -
  > knapsackcover  :          -          -          -          -          -          -          -         61          6         52         48          4          -
  cgmip            :       0.00       0.00          0          0          0          0          0          0          0          0          0          0          0
  clique           :       0.02       0.00         11         11          0          0          0          0          0          0          0          0          0
  closecuts        :       0.00       0.00          0          0          0          0          0          0          0          0          0          0          0
  convexproj       :       0.00       0.00          0          0          0          0          0          0          0          0          0          0          0
  disjunctive      :       0.00       0.00          0          0          0          0          0          0          0          0          0          0          0
  eccuts           :       0.00       0.00          0          0          0          0          0          0          0          0          0          0          0
  gauge            :       0.00       0.00          0          0          0          0          0          0          0          0          0          0          0
  gomory           :       8.65       0.00         17         10          0          0        810        808         40         15         15          0          0
  > gomorymi       :          -          -          -          -          -          -          -        592         20          8          8          0          -
  > strongcg       :          -          -          -          -          -          -          -        216         20          7          7          0          -
  impliedbounds    :       0.01       0.00         50         11          0          0          0          0          0          0          0          0          0
  interminor       :       0.00       0.00          0          0          0          0          0          0          0          0          0          0          0
  intobj           :       0.00       0.00          0          0          0          0          0          0          0          0          0          0          0
  mcf              :       0.00       0.00          0          0          0          0          0          0          0          0          0          0          0
  minor            :       0.00       0.00          0          0          0          0          0          0          0          0          0          0          0
  mixing           :       0.00       0.00          0          0          0          0          0          0          0          0          0          0          0
  oddcycle         :       0.00       0.00          0          0          0          0          0          0          0          0          0          0          0
  rapidlearning    :       0.59       0.00          0          0          0          0          0          0          0          0          0          0          0
  rlt              :       0.00       0.00         10         10          0          0          0          0          0          0          0          0          0
  zerohalf         :       0.54       0.00         18         11          0          0         25         30          2          9          9          0          0
Cutselectors       :   ExecTime  SetupTime      Calls  RootCalls   Selected     Forced   Filtered  RootSelec   RootForc   RootFilt 
  hybrid           :       0.00       0.00         39         11        127          0       1145         71          0        360
Pricers            :   ExecTime  SetupTime      Calls       Vars
  problem variables:       0.00          -          0          0
Branching Rules    :   ExecTime  SetupTime   BranchLP  BranchExt   BranchPS    Cutoffs    DomReds       Cuts      Conss   Children
  allfullstrong    :       0.00       0.00          0          0          0          0          0          0          0          0
  cloud            :       0.00       0.00          0          0          0          0          0          0          0          0
  distribution     :       0.00       0.00          0          0          0          0          0          0          0          0
  fullstrong       :       0.00       0.00          0          0          0          0          0          0          0          0
  inference        :       0.00       0.00          0          0          0          0          0          0          0          0
  leastinf         :       0.00       0.00          0          0          0          0          0          0          0          0
  lookahead        :       0.00       0.00          0          0          0          0          0          0          0          0
  mostinf          :       0.00       0.00          0          0          0          0          0          0          0          0
  multaggr         :       0.00       0.00          0          0          0          0          0          0          0          0
  nodereopt        :       0.00       0.00          0          0          0          0          0          0          0          0
  pscost           :       0.00       0.00          0          0          0          0          0          0          0          0
  random           :       0.00       0.00          0          0          0          0          0          0          0          0
  relpscost        :    3847.64       0.00        533          0          0          0       2373          0       2657         38
  vanillafullstrong:       0.00       0.00          0          0          0          0          0          0          0          0
Primal Heuristics  :   ExecTime  SetupTime      Calls      Found       Best
  LP solutions     :       0.00          -          -          0          0
  relax solutions  :       0.00          -          -          0          0
  pseudo solutions :       0.00          -          -          0          0
  strong branching :       0.01          -          -          0          0
  actconsdiving    :       0.00       0.00          0          0          0
  adaptivediving   :       0.00       0.00          0          0          0
  alns             :       6.18       0.00          1          0          0
  bound            :       0.00       0.00          0          0          0
  clique           :      17.46       0.00          1          0          0
  coefdiving       :       0.00       0.00          0          0          0
  completesol      :       0.00       0.00          0          0          0
  conflictdiving   :       7.07       0.00          1          0          0
  crossover        :       0.00       0.00          0          0          0
  dins             :       0.00       0.00          0          0          0
  distributiondivin:       0.01       0.00          0          0          0
  dps              :       0.00       0.00          0          0          0
  dualval          :       0.00       0.00          0          0          0
  farkasdiving     :       0.00       0.00          0          0          0
  feaspump         :       0.00       0.00          0          0          0
  fixandinfer      :       0.00       0.00          0          0          0
  fracdiving       :       0.00       0.00          0          0          0
  gins             :       0.00       0.00          0          0          0
  guideddiving     :       0.00       0.00          0          0          0
  indicator        :       0.00       0.00          0          0          0
  intdiving        :       0.00       0.00          0          0          0
  intshifting      :       0.00       0.00          0          0          0
  linesearchdiving :       0.00       0.00          0          0          0
  localbranching   :       0.00       0.00          0          0          0
  locks            :      29.05       0.00          1          0          0
  lpface           :      28.27       0.00          1          0          0
  mpec             :       0.00       0.00          0          0          0
  multistart       :       0.00       0.00          0          0          0
  mutation         :       0.00       0.00          0          0          0
  nlpdiving        :       0.00       0.00          0          0          0
  objpscostdiving  :       0.00       0.00          0          0          0
  octane           :       0.00       0.00          0          0          0
  ofins            :       0.00       0.00          0          0          0
  oneopt           :       1.10       0.00          3          0          0
  padm             :       0.00       0.00          0          0          0
  proximity        :       0.00       0.00          0          0          0
  pscostdiving     :       0.00       0.00          0          0          0
  randrounding     :      11.29       0.00         12          0          0
  rens             :       3.13       0.00          1          0          0
  reoptsols        :       0.00       0.00          0          0          0
  repair           :       0.00       0.00          0          0          0
  rins             :       0.00       0.00          0          0          0
  rootsoldiving    :       0.00       0.00          0          0          0
  rounding         :       2.95       0.00        135          0          0
  shiftandpropagate:      24.57       0.00          1          0          0
  shifting         :      27.50       0.00         72         54          2
  simplerounding   :       0.00       0.00          0          0          0
  subnlp           :       0.00       0.00          0          0          0
  trivial          :       0.63       0.00          2          0          0
  trivialnegation  :       0.00       0.00          0          0          0
  trustregion      :       0.00       0.00          0          0          0
  trysol           :       0.00       0.00          0          0          0
  twoopt           :       0.00       0.00          0          0          0
  undercover       :       0.00       0.00          0          0          0
  vbounds          :      26.79       0.00          1          0          0
  veclendiving     :       0.00       0.00          0          0          0
  zeroobj          :       0.00       0.00          0          0          0
  zirounding       :       0.42       0.00         19          0          0
  other solutions  :          -          -          -          0          -
LP                 :       Time      Calls Iterations  Iter/call   Iter/sec  Time-0-It Calls-0-It    ItLimit
  primal LP        :      29.76         10          0       0.00       0.00      29.76         10
  dual LP          :     298.95        624       5703       9.78      19.08       9.53         41
  lex dual LP      :       0.00          0          0       0.00          -
  barrier LP       :       0.00          0          0       0.00          -       0.00          0
  resolve instable :       0.00          0          0       0.00          -
  diving/probing LP:     159.38         31        178       5.74       1.12
  strong branching :    1462.50       2469      37524      15.20      25.66          -          -         81
    (at root node) :          -         16        756      47.25          -
  conflict analysis:    1849.18        774       7719       9.97       4.17
B&B Tree           :
  number of runs   :          1
  nodes            :         39 (19 internal, 20 leaves)
  feasible leaves  :          0
  infeas. leaves   :         18
  objective leaves :          2
  nodes (total)    :         39 (19 internal, 20 leaves)
  nodes left       :          0
  max depth        :         17
  max depth (total):         17
  backtracks       :          4 (10.3%)
  early backtracks :          0 (0.0%)
  nodes exc. ref.  :          0 (0.0%)
  delayed cutoffs  :          0
  repropagations   :         13 (11 domain reductions, 0 cutoffs)
  avg switch length:       4.21
  switching time   :      43.31
Root Node          :
  First LP value   : +3.41000000000000e+02
  First LP Iters   :          2 (0.09 Iter/sec)
  First LP Time    :      21.32
  Final Dual Bound : +3.41000000000000e+02
  Final Root Iters :        295
  Root LP Estimate : +3.41263979524895e+02
Solution           :
  Solutions found  :         54 (2 improvements)
  First Solution   : +3.74000000000000e+02   (in run 1, after 1 nodes, 200.05 seconds, depth 0, found by <shifting>)
  Gap First Sol.   :       9.68 %
  Gap Last Sol.    :       6.45 %
  Primal Bound     : +3.63000000000000e+02   (in run 1, after 19 nodes, 2475.66 seconds, depth 10, found by <shifting>)
  Dual Bound       : +3.63000000000000e+02
  Gap              :       0.00 %
Integrals          :      Total       Avg%
  primal-dual      :   46487.33       9.82
  primal-ref       :          -          - (not evaluated)
  dual-ref         :          -          - (not evaluated)
written solution information to file <results/final_miplib_symretope_if_extended_generating_set_cpx_v802__settings_final_nosym_norestarts__0__mspp16.mps.gz.sol>
@04 1686653931
